Li14 P6 S22                             
   1.00000000000000     
    12.3892927170000000    0.0000000000000000    0.0000000000000000
     2.6900120737000002   12.3583693090000004    0.0000000000000000
     5.1267442849000000    2.5187865596000001   11.3793247881999999
   S    Li   P    S 
     1    28    12    43
Direct
  0.5083060259999996  0.0540041479999971  0.7046115990000033
  0.6687428950000012  0.1761630029999992  0.9039711949999969
  0.6687428950000012  0.6761630179999969  0.9039711949999969
  0.3312571940000026  0.3238356109999998  0.0960283880000006
  0.3312571940000026  0.8238356109999998  0.0960283880000006
  0.6114585400000010  0.3671709600000028  0.1147873399999995
  0.6114585400000010  0.8671709300000003  0.1147873399999995
  0.3885427709999973  0.1328279379999984  0.8852128979999989
  0.3885427709999973  0.6328279379999984  0.8852128979999989
  0.1778128300000006  0.0024677019999970  0.2979970570000035
  0.1778128300000006  0.5024676920000033  0.2979970570000035
  0.8221877220000025  0.4975320989999972  0.7020025850000025
  0.8221877220000025  0.9975321289999997  0.7020025850000025
  0.9686143400000020  0.2278184440000004  0.7495711449999973
  0.9686143400000020  0.7278184290000027  0.7495711449999973
  0.0313853099999974  0.2721820180000023  0.2504284979999980
  0.0313853099999974  0.7721819879999998  0.2504284979999980
  0.2949205039999967  0.0990733060000011  0.7023826240000020
  0.2949205039999967  0.5990732910000034  0.7023826240000020
  0.7050798539999974  0.4009267690000016  0.2976173460000027
  0.7050798539999974  0.9009267690000016  0.2976173460000027
  0.6723443870000025  0.1008888859999999  0.4994633499999992
  0.6723443870000025  0.6008889080000017  0.4994633499999992
  0.3276556730000024  0.3991113310000003  0.5005362630000008
  0.3276556730000024  0.8991113310000003  0.5005362630000008
  0.1361429840000028  0.3533565700000025  0.8824014070000032
  0.1361429840000028  0.8533565999999979  0.8824014070000032
  0.8638582230000011  0.1466431619999966  0.1175977739999965
  0.8638582230000011  0.6466431619999966  0.1175977739999965
  0.7769408229999968  0.3160540160000025  0.5498678679999998
  0.7769408229999968  0.8160539869999965  0.5498678679999998
  0.2230586109999990  0.1839460130000035  0.4501324000000011
  0.2230586109999990  0.6839460130000035  0.4501324000000011
  0.4720538259999998  0.3971497120000009  0.7272555229999966
  0.4720538259999998  0.8971496819999984  0.7272555229999966
  0.5279458170000026  0.1028505559999999  0.2727444169999984
  0.5279458170000026  0.6028505559999999  0.2727444169999984
  0.8348844650000018  0.4582849139999965  0.9417669179999990
  0.8348844650000018  0.9582849140000036  0.9417669179999990
  0.1651147449999968  0.0417154060000016  0.0582332390000033
  0.1651147449999968  0.5417153839999997  0.0582332390000033
  0.8209434150000021  0.2551785710000019  0.4022387269999967
  0.8209434150000021  0.7551785710000019  0.4022387269999967
  0.1790562119999990  0.2448210720000006  0.5977616309999974
  0.1790562119999990  0.7448210720000006  0.5977616309999974
  0.8125801679999967  0.2038727850000015  0.6833589669999967
  0.8125801679999967  0.7038727999999992  0.6833589669999967
  0.1874188330000024  0.2961274090000003  0.3166412409999992
  0.1874188330000024  0.7961274390000028  0.3166412409999992
  0.8374133109999988  0.4616349040000003  0.5170275569999987
  0.8374133109999988  0.9616348739999978  0.5170275569999987
  0.1625860779999968  0.0383653230000007  0.4829725330000016
  0.1625860779999968  0.5383653040000027  0.4829725330000016
  0.5900002719999975  0.3329958919999996  0.5765242579999992
  0.5900002719999975  0.8329958919999996  0.5765242579999992
  0.4099998180000028  0.1670047940000003  0.4234751159999988
  0.4099998180000028  0.6670048240000028  0.4234751159999988
  0.3173536059999975  0.4026352169999967  0.7017551060000002
  0.3173536059999975  0.9026352169999967  0.7017551060000002
  0.6826459170000021  0.0973652899999990  0.2982449229999986
  0.6826459170000021  0.5973652599999966  0.2982449229999986
  0.4775420429999997  0.2918528909999978  0.8781114820000013
  0.4775420429999997  0.7918528909999978  0.8781114820000013
  0.5224580759999995  0.2081471230000034  0.1218881309999986
  0.5224580759999995  0.7081471090000022  0.1218881309999986
  0.5083060259999996  0.5540041329999994  0.7046115990000033
  0.4916935560000013  0.4459961060000026  0.2953888480000018
  0.4916935560000013  0.9459961060000026  0.2953888480000018
  0.8208362459999989  0.3515947759999989  0.1006187719999971
  0.8208362459999989  0.8515948060000014  0.1006187719999971
  0.1791636049999994  0.1484049709999979  0.8993810420000017
  0.1791636049999994  0.6484049560000003  0.8993810420000017
  0.8585389850000027  0.1142017620000004  0.9433858390000012
  0.8585389850000027  0.6142017840000022  0.9433858390000012
  0.1414607910000001  0.3857982159999978  0.0566142830000018
  0.1414607910000001  0.8857982159999978  0.0566142830000018
  0.6807149050000021  0.4703724680000008  0.9116758110000021
  0.6807149050000021  0.9703724379999983  0.9116758110000021
  0.3192848560000030  0.0296275580000014  0.0883243749999991
  0.3192848560000030  0.5296275620000017  0.0883243749999991
  0.9730954170000032  0.4071857630000011  0.8015559910000007
  0.9730954170000032  0.9071857929999965  0.8015559910000007
  0.0269045229999989  0.0928138049999987  0.1984439789999968
  0.0269045229999989  0.5928137900000010  0.1984439789999968
 
  0.00000000E+00  0.00000000E+00  0.00000000E+00
  0.00000000E+00  0.00000000E+00  0.00000000E+00
  0.00000000E+00  0.00000000E+00  0.00000000E+00
  0.00000000E+00  0.00000000E+00  0.00000000E+00
  0.00000000E+00  0.00000000E+00  0.00000000E+00
  0.00000000E+00  0.00000000E+00  0.00000000E+00
  0.00000000E+00  0.00000000E+00  0.00000000E+00
  0.00000000E+00  0.00000000E+00  0.00000000E+00
  0.00000000E+00  0.00000000E+00  0.00000000E+00
  0.00000000E+00  0.00000000E+00  0.00000000E+00
  0.00000000E+00  0.00000000E+00  0.00000000E+00
  0.00000000E+00  0.00000000E+00  0.00000000E+00
  0.00000000E+00  0.00000000E+00  0.00000000E+00
  0.00000000E+00  0.00000000E+00  0.00000000E+00
  0.00000000E+00  0.00000000E+00  0.00000000E+00
  0.00000000E+00  0.00000000E+00  0.00000000E+00
  0.00000000E+00  0.00000000E+00  0.00000000E+00
  0.00000000E+00  0.00000000E+00  0.00000000E+00
  0.00000000E+00  0.00000000E+00  0.00000000E+00
  0.00000000E+00  0.00000000E+00  0.00000000E+00
  0.00000000E+00  0.00000000E+00  0.00000000E+00
  0.00000000E+00  0.00000000E+00  0.00000000E+00
  0.00000000E+00  0.00000000E+00  0.00000000E+00
  0.00000000E+00  0.00000000E+00  0.00000000E+00
  0.00000000E+00  0.00000000E+00  0.00000000E+00
  0.00000000E+00  0.00000000E+00  0.00000000E+00
  0.00000000E+00  0.00000000E+00  0.00000000E+00
  0.00000000E+00  0.00000000E+00  0.00000000E+00
  0.00000000E+00  0.00000000E+00  0.00000000E+00
  0.00000000E+00  0.00000000E+00  0.00000000E+00
  0.00000000E+00  0.00000000E+00  0.00000000E+00
  0.00000000E+00  0.00000000E+00  0.00000000E+00
  0.00000000E+00  0.00000000E+00  0.00000000E+00
  0.00000000E+00  0.00000000E+00  0.00000000E+00
  0.00000000E+00  0.00000000E+00  0.00000000E+00
  0.00000000E+00  0.00000000E+00  0.00000000E+00
  0.00000000E+00  0.00000000E+00  0.00000000E+00
  0.00000000E+00  0.00000000E+00  0.00000000E+00
  0.00000000E+00  0.00000000E+00  0.00000000E+00
  0.00000000E+00  0.00000000E+00  0.00000000E+00
  0.00000000E+00  0.00000000E+00  0.00000000E+00
  0.00000000E+00  0.00000000E+00  0.00000000E+00
  0.00000000E+00  0.00000000E+00  0.00000000E+00
  0.00000000E+00  0.00000000E+00  0.00000000E+00
  0.00000000E+00  0.00000000E+00  0.00000000E+00
  0.00000000E+00  0.00000000E+00  0.00000000E+00
  0.00000000E+00  0.00000000E+00  0.00000000E+00
  0.00000000E+00  0.00000000E+00  0.00000000E+00
  0.00000000E+00  0.00000000E+00  0.00000000E+00
  0.00000000E+00  0.00000000E+00  0.00000000E+00
  0.00000000E+00  0.00000000E+00  0.00000000E+00
  0.00000000E+00  0.00000000E+00  0.00000000E+00
  0.00000000E+00  0.00000000E+00  0.00000000E+00
  0.00000000E+00  0.00000000E+00  0.00000000E+00
  0.00000000E+00  0.00000000E+00  0.00000000E+00
  0.00000000E+00  0.00000000E+00  0.00000000E+00
  0.00000000E+00  0.00000000E+00  0.00000000E+00
  0.00000000E+00  0.00000000E+00  0.00000000E+00
  0.00000000E+00  0.00000000E+00  0.00000000E+00
  0.00000000E+00  0.00000000E+00  0.00000000E+00
  0.00000000E+00  0.00000000E+00  0.00000000E+00
  0.00000000E+00  0.00000000E+00  0.00000000E+00
  0.00000000E+00  0.00000000E+00  0.00000000E+00
  0.00000000E+00  0.00000000E+00  0.00000000E+00
  0.00000000E+00  0.00000000E+00  0.00000000E+00
  0.00000000E+00  0.00000000E+00  0.00000000E+00
  0.00000000E+00  0.00000000E+00  0.00000000E+00
  0.00000000E+00  0.00000000E+00  0.00000000E+00
  0.00000000E+00  0.00000000E+00  0.00000000E+00
  0.00000000E+00  0.00000000E+00  0.00000000E+00
  0.00000000E+00  0.00000000E+00  0.00000000E+00
  0.00000000E+00  0.00000000E+00  0.00000000E+00
  0.00000000E+00  0.00000000E+00  0.00000000E+00
  0.00000000E+00  0.00000000E+00  0.00000000E+00
  0.00000000E+00  0.00000000E+00  0.00000000E+00
  0.00000000E+00  0.00000000E+00  0.00000000E+00
  0.00000000E+00  0.00000000E+00  0.00000000E+00
  0.00000000E+00  0.00000000E+00  0.00000000E+00
  0.00000000E+00  0.00000000E+00  0.00000000E+00
  0.00000000E+00  0.00000000E+00  0.00000000E+00
  0.00000000E+00  0.00000000E+00  0.00000000E+00
  0.00000000E+00  0.00000000E+00  0.00000000E+00
  0.00000000E+00  0.00000000E+00  0.00000000E+00
  0.00000000E+00  0.00000000E+00  0.00000000E+00
