Li14 P6 S22                             
   1.00000000000000     
    12.3892072299137546   -0.0045582927629227    0.0457425203370421
     1.3472173211783336    6.1786729084373642    0.0192368121238670
     5.0855915969651093    2.4906284758103654   11.4039621787899215
   Li   P    S 
    14     6    22
Direct
  0.6687429681853914  0.3523260262110099  0.9039712412362348
  0.3312572099294613  0.6476712634939759  0.0960283951009657
  0.6114585734705145  0.7343419829887381  0.1147873480188437
  0.3885427908029584  0.2656559196982897  0.8852129292632043
  0.1778128505142504  0.0049354053794772  0.2979970907895222
  0.8221878062633934  0.9950642851196179  0.7020026166974915
  0.9686144020561400  0.4556369208843876  0.7495712001414958
  0.0313853150717307  0.5443640990176988  0.2504285290213204
  0.2949205286316996  0.1981466305193322  0.7023827015199799
  0.7050799199805198  0.8018536220907464  0.2976173714899844
  0.6723444712504119  0.2017777806088077  0.4994633708840368
  0.3276557097807640  0.7982227182604404  0.5005362951219610
  0.1361429941051071  0.7067131908191371  0.8824014423855360
  0.8638583120488335  0.2932863464507776  0.1175977826833758
  0.7769408888468163  0.6321080916171624  0.5498679552055918
  0.2230586287391674  0.3678920510938468  0.4501324242229074
  0.4720538555832121  0.7942995050150898  0.7272555808500982
  0.5279458913772075  0.2057011350358238  0.2727444414263829
  0.8348845149113302  0.9165698749929447  0.9417670004218905
  0.1651147592327646  0.0834308187346409  0.0582332432232917
  0.8209434782455105  0.5103571975189283  0.4022387616785821
  0.1790562316988940  0.4896421674948783  0.5977617002079967
  0.8125802272163227  0.4077455926264122  0.6833590422081670
  0.1874188465469402  0.5922548555001370  0.3166412751091556
  0.8374133762435036  0.9232698469554563  0.5170276185841658
  0.1625860990918824  0.0767306561960197  0.4829725562982219
  0.5900003420401418  0.6659918348026892  0.5765242958641963
  0.4099998518898005  0.3340096124861489  0.4234751510165253
  0.3173536323576371  0.8052704780631288  0.7017551399964077
  0.6826459601173340  0.1947305883404198  0.2982449506878240
  0.4775420705549607  0.5837058324516349  0.8781115613149524
  0.5224581183105670  0.4162942842364501  0.1218881369542189
  0.5083061068028556  0.1080083038135413  0.7046116534145526
  0.4916935755691938  0.8919922714469735  0.2953888699840945
  0.8208362858841198  0.7031896073070385  0.1006187763953790
  0.1791636144595827  0.2968099712101093  0.8993811219681476
  0.8585390477262607  0.2284035322807583  0.9433858695418920
  0.1414608066159886  0.7715964700864930  0.0566142867473118
  0.6807149810952424  0.9407450163164057  0.9116758906749638
  0.3192848944202424  0.0592551200731393  0.0883243824922175
  0.9730954522642747  0.8143715835613889  0.8015560597340325
  0.0269045260670779  0.1856276311999068  0.1984439894228558
 
  0.00000000E+00  0.00000000E+00  0.00000000E+00
  0.00000000E+00  0.00000000E+00  0.00000000E+00
  0.00000000E+00  0.00000000E+00  0.00000000E+00
  0.00000000E+00  0.00000000E+00  0.00000000E+00
  0.00000000E+00  0.00000000E+00  0.00000000E+00
  0.00000000E+00  0.00000000E+00  0.00000000E+00
  0.00000000E+00  0.00000000E+00  0.00000000E+00
  0.00000000E+00  0.00000000E+00  0.00000000E+00
  0.00000000E+00  0.00000000E+00  0.00000000E+00
  0.00000000E+00  0.00000000E+00  0.00000000E+00
  0.00000000E+00  0.00000000E+00  0.00000000E+00
  0.00000000E+00  0.00000000E+00  0.00000000E+00
  0.00000000E+00  0.00000000E+00  0.00000000E+00
  0.00000000E+00  0.00000000E+00  0.00000000E+00
  0.00000000E+00  0.00000000E+00  0.00000000E+00
  0.00000000E+00  0.00000000E+00  0.00000000E+00
  0.00000000E+00  0.00000000E+00  0.00000000E+00
  0.00000000E+00  0.00000000E+00  0.00000000E+00
  0.00000000E+00  0.00000000E+00  0.00000000E+00
  0.00000000E+00  0.00000000E+00  0.00000000E+00
  0.00000000E+00  0.00000000E+00  0.00000000E+00
  0.00000000E+00  0.00000000E+00  0.00000000E+00
  0.00000000E+00  0.00000000E+00  0.00000000E+00
  0.00000000E+00  0.00000000E+00  0.00000000E+00
  0.00000000E+00  0.00000000E+00  0.00000000E+00
  0.00000000E+00  0.00000000E+00  0.00000000E+00
  0.00000000E+00  0.00000000E+00  0.00000000E+00
  0.00000000E+00  0.00000000E+00  0.00000000E+00
  0.00000000E+00  0.00000000E+00  0.00000000E+00
  0.00000000E+00  0.00000000E+00  0.00000000E+00
  0.00000000E+00  0.00000000E+00  0.00000000E+00
  0.00000000E+00  0.00000000E+00  0.00000000E+00
  0.00000000E+00  0.00000000E+00  0.00000000E+00
  0.00000000E+00  0.00000000E+00  0.00000000E+00
  0.00000000E+00  0.00000000E+00  0.00000000E+00
  0.00000000E+00  0.00000000E+00  0.00000000E+00
  0.00000000E+00  0.00000000E+00  0.00000000E+00
  0.00000000E+00  0.00000000E+00  0.00000000E+00
  0.00000000E+00  0.00000000E+00  0.00000000E+00
  0.00000000E+00  0.00000000E+00  0.00000000E+00
  0.00000000E+00  0.00000000E+00  0.00000000E+00
  0.00000000E+00  0.00000000E+00  0.00000000E+00
