ALGO = Fast
EDIFF = 1e-05
EDIFFG = -0.01
ENCUT = 520
IBRION = 2
ICHARG = 1
ISIF = 2
ISMEAR = 0
ISPIN = 2
ISYM = 0
LCHARG = False
LORBIT = 11
LREAL = Auto
LWAVE = False
NELM = 200
NELMIN = 6
NPAR = 4
NSW = 0
PREC = Accurate
SIGMA = 0.05
