Li14 P6 S22                             
   1.00000000000000     
    12.3892072299137546   -0.0045582927629227    0.0457425203370421
     1.3472173211783336    6.1786729084373642    0.0192368121238670
     5.0855915969651093    2.4906284758103654   11.4039621787899215
   Li   P    S 
    14     6    22
Direct
  0.6687429681853894  0.3523260262110126  0.9039712412362317
  0.3312572099294600  0.6476712634939786  0.0960283951009658
  0.6114585734705177  0.7343419829887414  0.1147873480188454
  0.3885427908029592  0.2656559196982933  0.8852129292632063
  0.1778128505142525  0.0049354053794799  0.2979970907895192
  0.8221878062633918  0.9950642851196151  0.7020026166974888
  0.9686144020561377  0.4556369208843891  0.7495712001414975
  0.0313853150717303  0.5443640990176954  0.2504285290213179
  0.2949205286317004  0.1981466305193354  0.7023827015199765
  0.7050799199805200  0.8018536220907443  0.2976173714899878
  0.6723444712504114  0.2017777806088064  0.4994633708840401
  0.3276557097807620  0.7982227182604432  0.5005362951219575
  0.1361429941051054  0.7067131908191373  0.8824014423855367
  0.8638583120488356  0.2932863464507764  0.1175977826833790
  0.7769408888468149  0.6321080916171602  0.5498679552055915
  0.2230586287391673  0.3678920510938440  0.4501324242229064
  0.4720538555832095  0.7942995050150896  0.7272555808501016
  0.5279458913772060  0.2057011350358253  0.2727444414263824
  0.8348845149113299  0.9165698749929417  0.9417670004218892
  0.1651147592327670  0.0834308187346428  0.0582332432232888
  0.8209434782455136  0.5103571975189255  0.4022387616785807
  0.1790562316988965  0.4896421674948781  0.5977617002079981
  0.8125802272163228  0.4077455926264148  0.6833590422081703
  0.1874188465469407  0.5922548555001388  0.3166412751091553
  0.8374133762435056  0.9232698469554576  0.5170276185841691
  0.1625860990918834  0.0767306561960230  0.4829725562982253
  0.5900003420401391  0.6659918348026909  0.5765242958641942
  0.4099998518898000  0.3340096124861488  0.4234751510165256
  0.3173536323576395  0.8052704780631271  0.7017551399964105
  0.6826459601173318  0.1947305883404212  0.2982449506878265
  0.4775420705549628  0.5837058324516330  0.8781115613149524
  0.5224581183105674  0.4162942842364497  0.1218881369542215
  0.5083061068028543  0.1080083038135444  0.7046116534145491
  0.4916935755691932  0.8919922714469746  0.2953888699840955
  0.8208362858841207  0.7031896073070416  0.1006187763953790
  0.1791636144595808  0.2968099712101095  0.8993811219681468
  0.8585390477262619  0.2284035322807562  0.9433858695418907
  0.1414608066159894  0.7715964700864949  0.0566142867473140
  0.6807149810952434  0.9407450163164075  0.9116758906749631
  0.3192848944202427  0.0592551200731378  0.0883243824922190
  0.9730954522642765  0.8143715835613863  0.8015560597340347
  0.0269045260670813  0.1856276311999048  0.1984439894228581
 
  0.00000000E+00  0.00000000E+00  0.00000000E+00
  0.00000000E+00  0.00000000E+00  0.00000000E+00
  0.00000000E+00  0.00000000E+00  0.00000000E+00
  0.00000000E+00  0.00000000E+00  0.00000000E+00
  0.00000000E+00  0.00000000E+00  0.00000000E+00
  0.00000000E+00  0.00000000E+00  0.00000000E+00
  0.00000000E+00  0.00000000E+00  0.00000000E+00
  0.00000000E+00  0.00000000E+00  0.00000000E+00
  0.00000000E+00  0.00000000E+00  0.00000000E+00
  0.00000000E+00  0.00000000E+00  0.00000000E+00
  0.00000000E+00  0.00000000E+00  0.00000000E+00
  0.00000000E+00  0.00000000E+00  0.00000000E+00
  0.00000000E+00  0.00000000E+00  0.00000000E+00
  0.00000000E+00  0.00000000E+00  0.00000000E+00
  0.00000000E+00  0.00000000E+00  0.00000000E+00
  0.00000000E+00  0.00000000E+00  0.00000000E+00
  0.00000000E+00  0.00000000E+00  0.00000000E+00
  0.00000000E+00  0.00000000E+00  0.00000000E+00
  0.00000000E+00  0.00000000E+00  0.00000000E+00
  0.00000000E+00  0.00000000E+00  0.00000000E+00
  0.00000000E+00  0.00000000E+00  0.00000000E+00
  0.00000000E+00  0.00000000E+00  0.00000000E+00
  0.00000000E+00  0.00000000E+00  0.00000000E+00
  0.00000000E+00  0.00000000E+00  0.00000000E+00
  0.00000000E+00  0.00000000E+00  0.00000000E+00
  0.00000000E+00  0.00000000E+00  0.00000000E+00
  0.00000000E+00  0.00000000E+00  0.00000000E+00
  0.00000000E+00  0.00000000E+00  0.00000000E+00
  0.00000000E+00  0.00000000E+00  0.00000000E+00
  0.00000000E+00  0.00000000E+00  0.00000000E+00
  0.00000000E+00  0.00000000E+00  0.00000000E+00
  0.00000000E+00  0.00000000E+00  0.00000000E+00
  0.00000000E+00  0.00000000E+00  0.00000000E+00
  0.00000000E+00  0.00000000E+00  0.00000000E+00
  0.00000000E+00  0.00000000E+00  0.00000000E+00
  0.00000000E+00  0.00000000E+00  0.00000000E+00
  0.00000000E+00  0.00000000E+00  0.00000000E+00
  0.00000000E+00  0.00000000E+00  0.00000000E+00
  0.00000000E+00  0.00000000E+00  0.00000000E+00
  0.00000000E+00  0.00000000E+00  0.00000000E+00
  0.00000000E+00  0.00000000E+00  0.00000000E+00
  0.00000000E+00  0.00000000E+00  0.00000000E+00
