γ-Li3PS4 Li6 P2 S8                     
   1.00000000000000     
     7.7728887530431452   -0.0000033681917313    0.0000011020054775
    -0.0000027248887747    6.6186469761244338   -0.0000003841750128
     0.0000010357285640   -0.0000004507128427    6.2250567792974012
   Li   P    S 
     6     2     8
Direct
  0.2435623021061343  0.3168557575935761 -0.0000276211987660
  0.2564381019141520  0.6831441890591163  0.4999719084053222
  0.7435611655912444  0.6831434992933233  0.4999717768080432
  0.7564385084591919  0.3168565213342524 -0.0000283052197278
 -0.0000002022956064  0.1433423811607082  0.4920524992366043
  0.5000001100011322  0.8566575011659002  0.9920524276552353
  0.0000004459212349  0.8183895641568136  0.0008237238071628
  0.4999994910534741  0.1816104392205975  0.5008236991422910
  0.2180289937774249  0.6737859652343253  0.8914540468516050
  0.2819691231790888  0.3262152529442662  0.3914533684653503
  0.7180305678642873  0.3262150763464409  0.3914527184322897
  0.7819713061958816  0.6737862525889325  0.8914538150616318
  0.0000003055071354  0.1120806960591720  0.8913364701868740
  0.4999997684867032  0.8879169675626877  0.3913353072636300
 -0.0000001662142958  0.8086679840744586  0.3320856195908329
  0.5000001784528179  0.1913318552054320  0.8320884975116104
 
  0.00000000E+00  0.00000000E+00  0.00000000E+00
  0.00000000E+00  0.00000000E+00  0.00000000E+00
  0.00000000E+00  0.00000000E+00  0.00000000E+00
  0.00000000E+00  0.00000000E+00  0.00000000E+00
  0.00000000E+00  0.00000000E+00  0.00000000E+00
  0.00000000E+00  0.00000000E+00  0.00000000E+00
  0.00000000E+00  0.00000000E+00  0.00000000E+00
  0.00000000E+00  0.00000000E+00  0.00000000E+00
  0.00000000E+00  0.00000000E+00  0.00000000E+00
  0.00000000E+00  0.00000000E+00  0.00000000E+00
  0.00000000E+00  0.00000000E+00  0.00000000E+00
  0.00000000E+00  0.00000000E+00  0.00000000E+00
  0.00000000E+00  0.00000000E+00  0.00000000E+00
  0.00000000E+00  0.00000000E+00  0.00000000E+00
  0.00000000E+00  0.00000000E+00  0.00000000E+00
  0.00000000E+00  0.00000000E+00  0.00000000E+00
