PREC = Accurate
LREAL = Auto
ALGO = Fast
ENCUT = 400
EDIFF = 1E-5
ISMEAR = 0
SIGMA = 0.05
NBANDS = 704
ISPIN = 2
LORBIT = 11
ICORELEVEL = 2
CLNT = 1
CLN = 1
CLL = 0
CLZ = 1.0
CH_LSPEC = .TRUE.
CH_SIGMA = 0.05
LCHARG = .FALSE.
LWAVE = .FALSE.